400
[42,44,45,46,47,48,49,55,56,57,62,63,64,66,68,69,70,71,72,73,74,76,77,78,79,83,84,85,86,87,88,89,91,93,94,95,96,97,98,99,101,102,103,105,106,108,109,110,113,114,116,117,118,119,120,121,122,123,124,127,129,130,132,133,134,135,137,139,140,142,143,145,146,147,149,150,151,152,153,154,156,157,159,160,162,163,166,168,171,172,173,174,175,176,177,178,179,180,181,182,183,185,186,189,190,191,192,195,196,197,199,202,205,206,207,208,209,210,212,213,215,216,217,218,219,220,221,222,223,225,226,227,228,229,231,232,233,234,235,236,238,239,240,241,243,244,246,247,249,251,252,254,255,256,257,258,259,260,261,262,263,264,265,266,267,269,270,271,272,274,275,276,277,278,279,280]
[1,2,3,2,2,1,1,2,1,1,1,1,1,3,1,1,2,1,1,3,2,4,2,1,2,1,2,1,1,1,1,2,1,1,2,2,1,2,1,2,1,1,2,2,3,1,2,2,1,1,1,4,3,1,2,3,2,1,5,1,3,2,3,1,1,1,2,3,1,2,1,1,1,1,2,1,1,6,2,2,2,2,2,1,3,1,2,1,1,2,1,2,2,1,2,1,1,1,1,1,2,2,1,3,2,1,2,2,3,1,2,2,3,1,1,1,2,2,1,1,1,1,1,3,1,3,1,2,2,2,3,1,1,3,2,3,1,1,2,1,1,1,3,3,1,3,1,1,3,2,1,1,1,2,2,2,3,2,1,2,2,4,2,1,2,2,2,1,1,1,1,1,1,1,1,2]
